
Log started (V11.0.0) Wed Apr 16 10:17:20 2008

Tried aggregator 1 time.
Reduced MIP has 140 rows, 4001 columns, and 8040 nonzeros.
Presolve time =    0.03 sec.
Clique table members: 100.
MIP emphasis: balance optimality and feasibility.
MIP search method: dynamic search.
Parallel mode: none, using 1 thread.
Root relaxation solution time =    0.09 sec.

        Nodes                                         Cuts/
   Node  Left     Objective  IInf  Best Integer     Best Node    ItCnt     Gap

*     0+    0                         5197.0000       30.6625      632   99.41%
*     0+    0                           39.0000       30.6625      632   21.38%
      0     0       31.0000    71       39.0000      Fract: 5      638   20.51%
*     0+    0                           38.0000       31.0000      638   18.42%

Repeating presolve.
Tried aggregator 1 time.
MIP Presolve eliminated 0 rows and 2788 columns.
MIP Presolve modified 143 coefficients.
Reduced MIP has 140 rows, 1213 columns, and 2464 nonzeros.
Tried aggregator 1 time.
Represolve time =    0.05 sec.
Clique table members: 328.
MIP emphasis: balance optimality and feasibility.
MIP search method: dynamic search.
Parallel mode: none, using 1 thread.
Root relaxation solution time =    0.03 sec.

        Nodes                                         Cuts/
   Node  Left     Objective  IInf  Best Integer     Best Node    ItCnt     Gap

      0     0       31.0000    77       38.0000       31.0000      423   18.42%
      0     2       31.0000    77       38.0000       31.0000      423   18.42%
    100    93       34.0489    58       38.0000       31.0000     1875   18.42%
    200   167       32.0000    85       38.0000       31.0000     3846   18.42%
    300   258       35.0000    55       38.0000       31.0000     5999   18.42%
*   360+  263                           37.0000       31.0000     7860   16.22%
    400   304       34.0000    51       37.0000       31.0000     8304   16.22%
    500   394       34.0000    73       37.0000       32.0000    10635   13.51%
*   511+  269                           36.0000       34.0000    13189    5.56%
    600   280       35.0000    50       36.0000       34.0000    16252    5.56%
*   671+  133                           35.0000       34.0000    20521    2.86%
    700   132       34.0000    93       35.0000       34.0000    24665    2.86%
*   718     0      integral     0       34.0000       34.0000    27954    0.00%

Clique cuts applied:  7
Cover cuts applied:  132
Flow cuts applied:  2
Mixed integer rounding cuts applied:  40
Gomory fractional cuts applied:  17

Solution pool: 7 solutions saved.

MIP - Integer optimal solution:  Objective = 3.4000000000e+001
Solution time =    8.38 sec.  Iterations = 27954  Nodes = 719


Incumbent solution
Variable Name           Solution Value
Cmax                         34.000000
X_1_25                        1.000000
X_2_22                        1.000000
X_3_29                        1.000000
X_4_35                        1.000000
X_5_12                        1.000000
X_5_24                       -0.000000
X_6_13                        1.000000
X_7_10                        1.000000
X_8_16                        1.000000
X_8_34                       -0.000000
X_9_15                        1.000000
X_10_40                       1.000000
X_11_17                       1.000000
X_12_27                       1.000000
X_13_37                       1.000000
X_14_4                        1.000000
X_14_6                       -0.000000
X_15_4                       -0.000000
X_15_17                       1.000000
X_16_30                       1.000000
X_17_36                       1.000000
X_18_5                        1.000000
X_19_5                       -0.000000
X_19_32                       1.000000
X_20_38                       1.000000
X_21_20                       1.000000
X_22_28                       1.000000
X_23_6                        1.000000
X_24_33                       1.000000
X_25_35                       1.000000
X_26_22                       1.000000
X_27_1                        1.000000
X_27_4                       -0.000000
X_27_33                      -0.000000
X_28_12                       1.000000
X_29_7                        1.000000
X_30_2                        1.000000
X_31_19                       1.000000
X_32_26                       1.000000
X_33_7                        1.000000
X_34_4                       -0.000000
X_34_22                       1.000000
X_35_21                       1.000000
X_36_33                       1.000000
X_37_26                       1.000000
X_38_11                       1.000000
X_39_10                       1.000000
X_39_17                      -0.000000
X_40_37                       1.000000
X_41_13                       1.000000
X_42_1                        1.000000
X_43_40                       1.000000
X_44_18                       1.000000
X_45_29                       1.000000
X_46_11                       1.000000
X_47_28                       1.000000
X_48_5                       -0.000000
X_48_24                       1.000000
X_49_8                        1.000000
X_50_17                       1.000000
X_51_21                       1.000000
X_52_9                        1.000000
X_53_6                        1.000000
X_54_30                       1.000000
X_55_31                       1.000000
X_56_38                       1.000000
X_57_19                       1.000000
X_58_23                       1.000000
X_59_24                       1.000000
X_60_15                       1.000000
X_61_2                        1.000000
X_62_7                        1.000000
X_63_31                       1.000000
X_64_19                       1.000000
X_65_3                        1.000000
X_66_40                       1.000000
X_67_34                       1.000000
X_68_36                       1.000000
X_69_32                       1.000000
X_70_14                       1.000000
X_71_32                      -0.000000
X_71_35                       1.000000
X_72_25                       1.000000
X_73_23                       1.000000
X_74_8                        1.000000
X_75_4                        1.000000
X_75_28                      -0.000000
X_76_21                       1.000000
X_77_37                       1.000000
X_78_9                        1.000000
X_79_11                      -0.000000
X_79_32                       1.000000
X_80_1                       -0.000000
X_80_31                       1.000000
X_81_3                        1.000000
X_82_10                       1.000000
X_83_25                       1.000000
X_84_26                       1.000000
X_85_34                       1.000000
X_86_20                       1.000000
X_87_30                       1.000000
X_88_11                       1.000000
X_88_31                      -0.000000
X_89_16                       1.000000
X_90_12                      -0.000000
X_90_34                       1.000000
X_91_18                       1.000000
X_92_5                        1.000000
X_92_35                      -0.000000
X_93_14                       1.000000
X_94_16                       1.000000
X_95_2                        1.000000
X_96_39                       1.000000
X_97_5                        1.000000
X_97_10                      -0.000000
X_98_39                       1.000000
X_99_36                       1.000000
X_100_27                      1.000000
All other variables in the range 1-4001 are 0.
